p edge 169 3328
e 1 2
e 1 3
e 1 4
e 1 5
e 1 6
e 1 7
e 1 8
e 1 9
e 1 10
e 1 11
e 1 12
e 1 13
e 1 15
e 1 16
e 1 28
e 1 31
e 1 49
e 1 50
e 1 68
e 1 71
e 1 73
e 1 81
e 1 85
e 1 91
e 1 97
e 1 103
e 1 110
e 1 116
e 1 122
e 1 127
e 1 129
e 1 136
e 1 155
e 1 159
e 1 163
e 1 167
e 2 3
e 2 4
e 2 5
e 2 6
e 2 7
e 2 8
e 2 9
e 2 10
e 2 11
e 2 12
e 2 13
e 2 15
e 2 16
e 2 17
e 2 29
e 2 32
e 2 48
e 2 58
e 2 67
e 2 70
e 2 74
e 2 82
e 2 86
e 2 92
e 2 98
e 2 102
e 2 109
e 2 115
e 2 121
e 2 130
e 2 137
e 2 154
e 2 160
e 2 164
e 2 166
e 3 4
e 3 5
e 3 6
e 3 7
e 3 8
e 3 9
e 3 10
e 3 11
e 3 12
e 3 13
e 3 16
e 3 17
e 3 18
e 3 28
e 3 31
e 3 33
e 3 47
e 3 57
e 3 66
e 3 72
e 3 75
e 3 83
e 3 87
e 3 94
e 3 99
e 3 100
e 3 108
e 3 123
e 3 131
e 3 139
e 3 156
e 3 161
e 3 165
e 3 168
e 4 5
e 4 6
e 4 7
e 4 8
e 4 9
e 4 10
e 4 11
e 4 12
e 4 13
e 4 17
e 4 18
e 4 19
e 4 29
e 4 32
e 4 34
e 4 46
e 4 56
e 4 65
e 4 71
e 4 73
e 4 76
e 4 84
e 4 88
e 4 93
e 4 95
e 4 101
e 4 124
e 4 132
e 4 140
e 4 157
e 4 158
e 4 162
e 4 169
e 5 6
e 5 7
e 5 8
e 5 9
e 5 10
e 5 11
e 5 12
e 5 13
e 5 18
e 5 19
e 5 20
e 5 31
e 5 33
e 5 35
e 5 45
e 5 55
e 5 64
e 5 70
e 5 74
e 5 77
e 5 81
e 5 85
e 5 89
e 5 90
e 5 96
e 5 125
e 5 133
e 5 141
e 5 150
e 5 151
e 5 152
e 5 153
e 6 7
e 6 8
e 6 9
e 6 10
e 6 11
e 6 12
e 6 13
e 6 19
e 6 20
e 6 21
e 6 32
e 6 34
e 6 36
e 6 44
e 6 54
e 6 63
e 6 72
e 6 75
e 6 78
e 6 80
e 6 82
e 6 86
e 6 91
e 6 97
e 6 126
e 6 134
e 6 138
e 6 146
e 6 147
e 6 148
e 6 149
e 7 8
e 7 9
e 7 10
e 7 11
e 7 12
e 7 13
e 7 20
e 7 21
e 7 22
e 7 33
e 7 35
e 7 37
e 7 43
e 7 53
e 7 62
e 7 73
e 7 76
e 7 79
e 7 83
e 7 87
e 7 92
e 7 98
e 7 122
e 7 127
e 7 128
e 7 135
e 7 142
e 7 143
e 7 144
e 7 145
e 8 9
e 8 10
e 8 11
e 8 12
e 8 13
e 8 21
e 8 22
e 8 23
e 8 34
e 8 36
e 8 38
e 8 42
e 8 52
e 8 61
e 8 74
e 8 77
e 8 84
e 8 88
e 8 94
e 8 99
e 8 114
e 8 115
e 8 116
e 8 117
e 8 118
e 8 119
e 8 120
e 8 121
e 8 129
e 9 10
e 9 11
e 9 12
e 9 13
e 9 22
e 9 23
e 9 24
e 9 35
e 9 37
e 9 39
e 9 40
e 9 51
e 9 75
e 9 78
e 9 85
e 9 89
e 9 93
e 9 95
e 9 107
e 9 108
e 9 109
e 9 110
e 9 111
e 9 112
e 9 113
e 9 123
e 9 130
e 9 136
e 10 11
e 10 12
e 10 13
e 10 23
e 10 24
e 10 25
e 10 30
e 10 36
e 10 38
e 10 41
e 10 76
e 10 79
e 10 80
e 10 86
e 10 90
e 10 96
e 10 100
e 10 101
e 10 102
e 10 103
e 10 104
e 10 105
e 10 106
e 10 124
e 10 131
e 10 137
e 10 155
e 11 12
e 11 13
e 11 24
e 11 25
e 11 26
e 11 27
e 11 37
e 11 39
e 11 60
e 11 61
e 11 62
e 11 63
e 11 64
e 11 65
e 11 66
e 11 67
e 11 68
e 11 69
e 11 77
e 11 87
e 11 97
e 11 125
e 11 132
e 11 139
e 11 154
e 11 159
e 12 13
e 12 14
e 12 25
e 12 26
e 12 30
e 12 38
e 12 50
e 12 51
e 12 52
e 12 53
e 12 54
e 12 55
e 12 56
e 12 57
e 12 58
e 12 59
e 12 78
e 12 88
e 12 98
e 12 126
e 12 133
e 12 140
e 12 156
e 12 160
e 12 163
e 13 14
e 13 26
e 13 27
e 13 39
e 13 40
e 13 41
e 13 42
e 13 43
e 13 44
e 13 45
e 13 46
e 13 47
e 13 48
e 13 49
e 13 79
e 13 89
e 13 99
e 13 127
e 13 134
e 13 141
e 13 157
e 13 161
e 13 164
e 13 167
e 14 15
e 14 16
e 14 17
e 14 18
e 14 19
e 14 20
e 14 21
e 14 22
e 14 23
e 14 24
e 14 25
e 14 26
e 14 27
e 14 30
e 14 40
e 14 41
e 14 42
e 14 43
e 14 44
e 14 45
e 14 46
e 14 47
e 14 48
e 14 49
e 14 61
e 14 80
e 14 93
e 14 115
e 14 128
e 14 138
e 14 151
e 14 158
e 14 165
e 14 166
e 15 16
e 15 17
e 15 18
e 15 19
e 15 20
e 15 21
e 15 22
e 15 23
e 15 24
e 15 25
e 15 26
e 15 28
e 15 29
e 15 59
e 15 60
e 15 71
e 15 72
e 15 81
e 15 84
e 15 91
e 15 96
e 15 104
e 15 111
e 15 117
e 15 122
e 15 126
e 15 128
e 15 129
e 15 136
e 15 155
e 15 159
e 15 163
e 15 167
e 16 17
e 16 18
e 16 19
e 16 20
e 16 21
e 16 22
e 16 23
e 16 24
e 16 25
e 16 26
e 16 28
e 16 29
e 16 31
e 16 49
e 16 50
e 16 68
e 16 70
e 16 73
e 16 82
e 16 85
e 16 92
e 16 97
e 16 103
e 16 110
e 16 116
e 16 121
e 16 127
e 16 130
e 16 137
e 16 154
e 16 160
e 16 164
e 16 166
e 17 18
e 17 19
e 17 20
e 17 21
e 17 22
e 17 23
e 17 24
e 17 25
e 17 26
e 17 29
e 17 31
e 17 32
e 17 48
e 17 58
e 17 67
e 17 71
e 17 72
e 17 74
e 17 83
e 17 86
e 17 94
e 17 98
e 17 102
e 17 109
e 17 115
e 17 123
e 17 131
e 17 139
e 17 156
e 17 161
e 17 165
e 17 168
e 18 19
e 18 20
e 18 21
e 18 22
e 18 23
e 18 24
e 18 25
e 18 26
e 18 31
e 18 32
e 18 33
e 18 47
e 18 57
e 18 66
e 18 70
e 18 73
e 18 75
e 18 81
e 18 84
e 18 87
e 18 95
e 18 99
e 18 100
e 18 108
e 18 124
e 18 132
e 18 140
e 18 157
e 18 158
e 18 162
e 18 169
e 19 20
e 19 21
e 19 22
e 19 23
e 19 24
e 19 25
e 19 26
e 19 32
e 19 33
e 19 34
e 19 46
e 19 56
e 19 65
e 19 72
e 19 74
e 19 76
e 19 82
e 19 85
e 19 88
e 19 91
e 19 93
e 19 96
e 19 101
e 19 125
e 19 133
e 19 141
e 19 150
e 19 151
e 19 152
e 19 153
e 20 21
e 20 22
e 20 23
e 20 24
e 20 25
e 20 26
e 20 33
e 20 34
e 20 35
e 20 45
e 20 55
e 20 64
e 20 73
e 20 75
e 20 77
e 20 83
e 20 86
e 20 89
e 20 90
e 20 92
e 20 97
e 20 122
e 20 126
e 20 134
e 20 138
e 20 146
e 20 147
e 20 148
e 20 149
e 21 22
e 21 23
e 21 24
e 21 25
e 21 26
e 21 34
e 21 35
e 21 36
e 21 44
e 21 54
e 21 63
e 21 74
e 21 76
e 21 78
e 21 80
e 21 84
e 21 87
e 21 94
e 21 98
e 21 121
e 21 127
e 21 128
e 21 129
e 21 135
e 21 142
e 21 143
e 21 144
e 21 145
e 22 23
e 22 24
e 22 25
e 22 26
e 22 35
e 22 36
e 22 37
e 22 43
e 22 53
e 22 62
e 22 75
e 22 77
e 22 79
e 22 85
e 22 88
e 22 95
e 22 99
e 22 114
e 22 115
e 22 116
e 22 117
e 22 118
e 22 119
e 22 120
e 22 123
e 22 130
e 22 136
e 23 24
e 23 25
e 23 26
e 23 36
e 23 37
e 23 38
e 23 42
e 23 52
e 23 61
e 23 76
e 23 78
e 23 86
e 23 89
e 23 93
e 23 96
e 23 107
e 23 108
e 23 109
e 23 110
e 23 111
e 23 112
e 23 113
e 23 124
e 23 131
e 23 137
e 23 155
e 24 25
e 24 26
e 24 37
e 24 38
e 24 39
e 24 40
e 24 51
e 24 77
e 24 79
e 24 80
e 24 87
e 24 90
e 24 97
e 24 100
e 24 101
e 24 102
e 24 103
e 24 104
e 24 105
e 24 106
e 24 125
e 24 132
e 24 139
e 24 154
e 24 159
e 25 26
e 25 30
e 25 38
e 25 39
e 25 41
e 25 60
e 25 61
e 25 62
e 25 63
e 25 64
e 25 65
e 25 66
e 25 67
e 25 68
e 25 69
e 25 78
e 25 88
e 25 98
e 25 126
e 25 133
e 25 140
e 25 156
e 25 160
e 25 163
e 26 27
e 26 30
e 26 39
e 26 50
e 26 51
e 26 52
e 26 53
e 26 54
e 26 55
e 26 56
e 26 57
e 26 58
e 26 59
e 26 79
e 26 89
e 26 99
e 26 127
e 26 134
e 26 141
e 26 157
e 26 161
e 26 164
e 26 167
e 27 28
e 27 29
e 27 30
e 27 31
e 27 32
e 27 33
e 27 34
e 27 35
e 27 36
e 27 37
e 27 38
e 27 39
e 27 40
e 27 41
e 27 42
e 27 43
e 27 44
e 27 45
e 27 46
e 27 47
e 27 48
e 27 49
e 27 51
e 27 62
e 27 90
e 27 108
e 27 116
e 27 135
e 27 147
e 27 152
e 27 162
e 27 168
e 28 29
e 28 30
e 28 31
e 28 32
e 28 33
e 28 34
e 28 35
e 28 36
e 28 37
e 28 38
e 28 39
e 28 69
e 28 70
e 28 71
e 28 81
e 28 83
e 28 91
e 28 95
e 28 105
e 28 112
e 28 118
e 28 122
e 28 125
e 28 129
e 28 134
e 28 135
e 28 136
e 28 155
e 28 159
e 28 163
e 28 167
e 29 30
e 29 31
e 29 32
e 29 33
e 29 34
e 29 35
e 29 36
e 29 37
e 29 38
e 29 39
e 29 59
e 29 60
e 29 70
e 29 71
e 29 72
e 29 82
e 29 84
e 29 92
e 29 96
e 29 104
e 29 111
e 29 117
e 29 121
e 29 126
e 29 128
e 29 130
e 29 137
e 29 154
e 29 160
e 29 164
e 29 166
e 30 31
e 30 32
e 30 33
e 30 34
e 30 35
e 30 36
e 30 37
e 30 38
e 30 39
e 30 41
e 30 50
e 30 51
e 30 52
e 30 53
e 30 54
e 30 55
e 30 56
e 30 57
e 30 58
e 30 59
e 30 61
e 30 80
e 30 93
e 30 115
e 30 128
e 30 138
e 30 151
e 30 158
e 30 165
e 30 166
e 31 32
e 31 33
e 31 34
e 31 35
e 31 36
e 31 37
e 31 38
e 31 39
e 31 49
e 31 50
e 31 68
e 31 70
e 31 72
e 31 73
e 31 81
e 31 83
e 31 85
e 31 94
e 31 97
e 31 103
e 31 110
e 31 116
e 31 123
e 31 127
e 31 131
e 31 139
e 31 156
e 31 161
e 31 165
e 31 168
e 32 33
e 32 34
e 32 35
e 32 36
e 32 37
e 32 38
e 32 39
e 32 48
e 32 58
e 32 67
e 32 72
e 32 73
e 32 74
e 32 82
e 32 84
e 32 86
e 32 91
e 32 95
e 32 98
e 32 102
e 32 109
e 32 115
e 32 124
e 32 132
e 32 140
e 32 157
e 32 158
e 32 162
e 32 169
e 33 34
e 33 35
e 33 36
e 33 37
e 33 38
e 33 39
e 33 47
e 33 57
e 33 66
e 33 73
e 33 74
e 33 75
e 33 83
e 33 85
e 33 87
e 33 92
e 33 96
e 33 99
e 33 100
e 33 108
e 33 122
e 33 125
e 33 133
e 33 141
e 33 150
e 33 151
e 33 152
e 33 153
e 34 35
e 34 36
e 34 37
e 34 38
e 34 39
e 34 46
e 34 56
e 34 65
e 34 74
e 34 75
e 34 76
e 34 84
e 34 86
e 34 88
e 34 93
e 34 94
e 34 97
e 34 101
e 34 121
e 34 126
e 34 129
e 34 134
e 34 138
e 34 146
e 34 147
e 34 148
e 34 149
e 35 36
e 35 37
e 35 38
e 35 39
e 35 45
e 35 55
e 35 64
e 35 75
e 35 76
e 35 77
e 35 85
e 35 87
e 35 89
e 35 90
e 35 95
e 35 98
e 35 123
e 35 127
e 35 128
e 35 130
e 35 135
e 35 136
e 35 142
e 35 143
e 35 144
e 35 145
e 36 37
e 36 38
e 36 39
e 36 44
e 36 54
e 36 63
e 36 76
e 36 77
e 36 78
e 36 80
e 36 86
e 36 88
e 36 96
e 36 99
e 36 114
e 36 115
e 36 116
e 36 117
e 36 118
e 36 119
e 36 120
e 36 124
e 36 131
e 36 137
e 36 155
e 37 38
e 37 39
e 37 43
e 37 53
e 37 62
e 37 77
e 37 78
e 37 79
e 37 87
e 37 89
e 37 93
e 37 97
e 37 107
e 37 108
e 37 109
e 37 110
e 37 111
e 37 112
e 37 113
e 37 125
e 37 132
e 37 139
e 37 154
e 37 159
e 38 39
e 38 42
e 38 52
e 38 61
e 38 78
e 38 79
e 38 80
e 38 88
e 38 90
e 38 98
e 38 100
e 38 101
e 38 102
e 38 103
e 38 104
e 38 105
e 38 106
e 38 126
e 38 133
e 38 140
e 38 156
e 38 160
e 38 163
e 39 40
e 39 51
e 39 60
e 39 61
e 39 62
e 39 63
e 39 64
e 39 65
e 39 66
e 39 67
e 39 68
e 39 69
e 39 79
e 39 89
e 39 99
e 39 127
e 39 134
e 39 141
e 39 157
e 39 161
e 39 164
e 39 167
e 40 41
e 40 42
e 40 43
e 40 44
e 40 45
e 40 46
e 40 47
e 40 48
e 40 49
e 40 51
e 40 52
e 40 53
e 40 62
e 40 64
e 40 80
e 40 81
e 40 82
e 40 83
e 40 84
e 40 85
e 40 86
e 40 87
e 40 88
e 40 89
e 40 100
e 40 110
e 40 118
e 40 142
e 40 146
e 40 153
e 41 42
e 41 43
e 41 44
e 41 45
e 41 46
e 41 47
e 41 48
e 41 49
e 41 51
e 41 52
e 41 61
e 41 63
e 41 70
e 41 71
e 41 72
e 41 73
e 41 74
e 41 75
e 41 76
e 41 77
e 41 78
e 41 79
e 41 101
e 41 109
e 41 117
e 41 143
e 41 148
e 41 150
e 41 169
e 42 43
e 42 44
e 42 45
e 42 46
e 42 47
e 42 48
e 42 49
e 42 52
e 42 53
e 42 54
e 42 61
e 42 63
e 42 65
e 42 90
e 42 91
e 42 92
e 42 93
e 42 94
e 42 95
e 42 96
e 42 97
e 42 98
e 42 99
e 42 102
e 42 111
e 42 119
e 42 144
e 42 149
e 43 44
e 43 45
e 43 46
e 43 47
e 43 48
e 43 49
e 43 53
e 43 54
e 43 55
e 43 62
e 43 64
e 43 66
e 43 79
e 43 101
e 43 103
e 43 108
e 43 112
e 43 114
e 43 115
e 43 121
e 43 122
e 43 123
e 43 124
e 43 125
e 43 126
e 43 127
e 43 145
e 44 45
e 44 46
e 44 47
e 44 48
e 44 49
e 44 54
e 44 55
e 44 56
e 44 63
e 44 65
e 44 67
e 44 78
e 44 80
e 44 100
e 44 104
e 44 107
e 44 109
e 44 116
e 44 120
e 44 128
e 44 129
e 44 130
e 44 131
e 44 132
e 44 133
e 44 134
e 45 46
e 45 47
e 45 48
e 45 49
e 45 55
e 45 56
e 45 57
e 45 64
e 45 66
e 45 68
e 45 77
e 45 89
e 45 90
e 45 102
e 45 105
e 45 110
e 45 113
e 45 117
e 45 135
e 45 136
e 45 137
e 45 138
e 45 139
e 45 140
e 45 141
e 46 47
e 46 48
e 46 49
e 46 56
e 46 57
e 46 58
e 46 60
e 46 65
e 46 67
e 46 76
e 46 88
e 46 93
e 46 101
e 46 103
e 46 106
e 46 111
e 46 118
e 46 143
e 46 147
e 46 151
e 46 154
e 46 155
e 46 156
e 46 157
e 47 48
e 47 49
e 47 50
e 47 57
e 47 58
e 47 66
e 47 68
e 47 69
e 47 75
e 47 87
e 47 99
e 47 100
e 47 104
e 47 108
e 47 112
e 47 119
e 47 142
e 47 148
e 47 152
e 47 158
e 47 159
e 47 160
e 47 161
e 48 49
e 48 50
e 48 58
e 48 59
e 48 60
e 48 67
e 48 74
e 48 86
e 48 98
e 48 102
e 48 105
e 48 107
e 48 109
e 48 114
e 48 115
e 48 144
e 48 146
e 48 150
e 48 162
e 48 163
e 48 164
e 48 165
e 49 50
e 49 59
e 49 68
e 49 69
e 49 73
e 49 85
e 49 97
e 49 103
e 49 106
e 49 110
e 49 113
e 49 116
e 49 120
e 49 127
e 49 145
e 49 149
e 49 153
e 49 166
e 49 167
e 49 168
e 49 169
e 50 51
e 50 52
e 50 53
e 50 54
e 50 55
e 50 56
e 50 57
e 50 58
e 50 59
e 50 60
e 50 68
e 50 69
e 50 73
e 50 85
e 50 97
e 50 103
e 50 105
e 50 107
e 50 110
e 50 114
e 50 116
e 50 127
e 50 144
e 50 146
e 50 150
e 50 162
e 50 163
e 50 164
e 50 165
e 51 52
e 51 53
e 51 54
e 51 55
e 51 56
e 51 57
e 51 58
e 51 59
e 51 61
e 51 62
e 51 70
e 51 71
e 51 72
e 51 73
e 51 74
e 51 75
e 51 76
e 51 77
e 51 78
e 51 79
e 51 90
e 51 108
e 51 116
e 51 135
e 51 147
e 51 152
e 51 162
e 51 168
e 52 53
e 52 54
e 52 55
e 52 56
e 52 57
e 52 58
e 52 59
e 52 61
e 52 62
e 52 63
e 52 80
e 52 81
e 52 82
e 52 83
e 52 84
e 52 85
e 52 86
e 52 87
e 52 88
e 52 89
e 52 101
e 52 109
e 52 117
e 52 143
e 52 148
e 52 150
e 52 169
e 53 54
e 53 55
e 53 56
e 53 57
e 53 58
e 53 59
e 53 62
e 53 63
e 53 64
e 53 79
e 53 90
e 53 91
e 53 92
e 53 93
e 53 94
e 53 95
e 53 96
e 53 97
e 53 98
e 53 99
e 53 100
e 53 110
e 53 118
e 53 142
e 53 146
e 53 153
e 54 55
e 54 56
e 54 57
e 54 58
e 54 59
e 54 63
e 54 64
e 54 65
e 54 78
e 54 80
e 54 101
e 54 102
e 54 108
e 54 111
e 54 115
e 54 119
e 54 121
e 54 122
e 54 123
e 54 124
e 54 125
e 54 126
e 54 127
e 54 144
e 54 149
e 55 56
e 55 57
e 55 58
e 55 59
e 55 64
e 55 65
e 55 66
e 55 77
e 55 89
e 55 90
e 55 100
e 55 103
e 55 109
e 55 112
e 55 114
e 55 116
e 55 128
e 55 129
e 55 130
e 55 131
e 55 132
e 55 133
e 55 134
e 55 145
e 56 57
e 56 58
e 56 59
e 56 65
e 56 66
e 56 67
e 56 76
e 56 88
e 56 93
e 56 101
e 56 102
e 56 104
e 56 107
e 56 110
e 56 117
e 56 120
e 56 135
e 56 136
e 56 137
e 56 138
e 56 139
e 56 140
e 56 141
e 57 58
e 57 59
e 57 66
e 57 67
e 57 68
e 57 75
e 57 87
e 57 99
e 57 100
e 57 103
e 57 105
e 57 108
e 57 111
e 57 113
e 57 118
e 57 143
e 57 147
e 57 151
e 57 154
e 57 155
e 57 156
e 57 157
e 58 59
e 58 60
e 58 67
e 58 68
e 58 74
e 58 86
e 58 98
e 58 102
e 58 104
e 58 106
e 58 109
e 58 112
e 58 115
e 58 119
e 58 142
e 58 148
e 58 152
e 58 158
e 58 159
e 58 160
e 58 161
e 59 60
e 59 69
e 59 72
e 59 84
e 59 96
e 59 104
e 59 106
e 59 111
e 59 113
e 59 117
e 59 120
e 59 126
e 59 128
e 59 145
e 59 149
e 59 153
e 59 166
e 59 167
e 59 168
e 59 169
e 60 61
e 60 62
e 60 63
e 60 64
e 60 65
e 60 66
e 60 67
e 60 68
e 60 69
e 60 72
e 60 84
e 60 96
e 60 104
e 60 105
e 60 106
e 60 107
e 60 111
e 60 114
e 60 117
e 60 126
e 60 128
e 60 144
e 60 146
e 60 150
e 60 162
e 60 163
e 60 164
e 60 165
e 61 62
e 61 63
e 61 64
e 61 65
e 61 66
e 61 67
e 61 68
e 61 69
e 61 70
e 61 71
e 61 72
e 61 73
e 61 74
e 61 75
e 61 76
e 61 77
e 61 78
e 61 79
e 61 80
e 61 93
e 61 115
e 61 128
e 61 138
e 61 151
e 61 158
e 61 165
e 61 166
e 62 63
e 62 64
e 62 65
e 62 66
e 62 67
e 62 68
e 62 69
e 62 79
e 62 80
e 62 81
e 62 82
e 62 83
e 62 84
e 62 85
e 62 86
e 62 87
e 62 88
e 62 89
e 62 90
e 62 108
e 62 116
e 62 135
e 62 147
e 62 152
e 62 162
e 62 168
e 63 64
e 63 65
e 63 66
e 63 67
e 63 68
e 63 69
e 63 78
e 63 80
e 63 90
e 63 91
e 63 92
e 63 93
e 63 94
e 63 95
e 63 96
e 63 97
e 63 98
e 63 99
e 63 101
e 63 109
e 63 117
e 63 143
e 63 148
e 63 150
e 63 169
e 64 65
e 64 66
e 64 67
e 64 68
e 64 69
e 64 77
e 64 89
e 64 90
e 64 100
e 64 101
e 64 108
e 64 110
e 64 115
e 64 118
e 64 121
e 64 122
e 64 123
e 64 124
e 64 125
e 64 126
e 64 127
e 64 142
e 64 146
e 64 153
e 65 66
e 65 67
e 65 68
e 65 69
e 65 76
e 65 88
e 65 93
e 65 100
e 65 101
e 65 102
e 65 109
e 65 111
e 65 116
e 65 119
e 65 128
e 65 129
e 65 130
e 65 131
e 65 132
e 65 133
e 65 134
e 65 144
e 65 149
e 66 67
e 66 68
e 66 69
e 66 75
e 66 87
e 66 99
e 66 100
e 66 102
e 66 103
e 66 108
e 66 110
e 66 112
e 66 114
e 66 117
e 66 135
e 66 136
e 66 137
e 66 138
e 66 139
e 66 140
e 66 141
e 66 145
e 67 68
e 67 69
e 67 74
e 67 86
e 67 98
e 67 102
e 67 103
e 67 104
e 67 107
e 67 109
e 67 111
e 67 115
e 67 118
e 67 120
e 67 143
e 67 147
e 67 151
e 67 154
e 67 155
e 67 156
e 67 157
e 68 69
e 68 73
e 68 85
e 68 97
e 68 103
e 68 104
e 68 105
e 68 110
e 68 112
e 68 113
e 68 116
e 68 119
e 68 127
e 68 142
e 68 148
e 68 152
e 68 158
e 68 159
e 68 160
e 68 161
e 69 70
e 69 83
e 69 95
e 69 105
e 69 106
e 69 112
e 69 113
e 69 118
e 69 120
e 69 125
e 69 134
e 69 135
e 69 145
e 69 149
e 69 153
e 69 166
e 69 167
e 69 168
e 69 169
e 70 71
e 70 72
e 70 73
e 70 74
e 70 75
e 70 76
e 70 77
e 70 78
e 70 79
e 70 81
e 70 82
e 70 83
e 70 92
e 70 95
e 70 105
e 70 112
e 70 118
e 70 121
e 70 125
e 70 130
e 70 134
e 70 135
e 70 137
e 70 154
e 70 160
e 70 164
e 70 166
e 71 72
e 71 73
e 71 74
e 71 75
e 71 76
e 71 77
e 71 78
e 71 79
e 71 81
e 71 82
e 71 91
e 71 94
e 71 106
e 71 107
e 71 119
e 71 122
e 71 124
e 71 129
e 71 133
e 71 136
e 71 138
e 71 143
e 71 155
e 71 159
e 71 163
e 71 167
e 72 73
e 72 74
e 72 75
e 72 76
e 72 77
e 72 78
e 72 79
e 72 82
e 72 83
e 72 84
e 72 91
e 72 94
e 72 96
e 72 104
e 72 111
e 72 117
e 72 123
e 72 126
e 72 128
e 72 131
e 72 139
e 72 156
e 72 161
e 72 165
e 72 168
e 73 74
e 73 75
e 73 76
e 73 77
e 73 78
e 73 79
e 73 83
e 73 84
e 73 85
e 73 92
e 73 95
e 73 97
e 73 103
e 73 110
e 73 116
e 73 122
e 73 124
e 73 127
e 73 132
e 73 140
e 73 157
e 73 158
e 73 162
e 73 169
e 74 75
e 74 76
e 74 77
e 74 78
e 74 79
e 74 84
e 74 85
e 74 86
e 74 94
e 74 96
e 74 98
e 74 102
e 74 109
e 74 115
e 74 121
e 74 125
e 74 129
e 74 133
e 74 141
e 74 150
e 74 151
e 74 152
e 74 153
e 75 76
e 75 77
e 75 78
e 75 79
e 75 85
e 75 86
e 75 87
e 75 95
e 75 97
e 75 99
e 75 100
e 75 108
e 75 123
e 75 126
e 75 130
e 75 134
e 75 136
e 75 138
e 75 146
e 75 147
e 75 148
e 75 149
e 76 77
e 76 78
e 76 79
e 76 86
e 76 87
e 76 88
e 76 93
e 76 96
e 76 98
e 76 101
e 76 124
e 76 127
e 76 128
e 76 131
e 76 135
e 76 137
e 76 142
e 76 143
e 76 144
e 76 145
e 76 155
e 77 78
e 77 79
e 77 87
e 77 88
e 77 89
e 77 90
e 77 97
e 77 99
e 77 114
e 77 115
e 77 116
e 77 117
e 77 118
e 77 119
e 77 120
e 77 125
e 77 132
e 77 139
e 77 154
e 77 159
e 78 79
e 78 80
e 78 88
e 78 89
e 78 93
e 78 98
e 78 107
e 78 108
e 78 109
e 78 110
e 78 111
e 78 112
e 78 113
e 78 126
e 78 133
e 78 140
e 78 156
e 78 160
e 78 163
e 79 80
e 79 89
e 79 90
e 79 99
e 79 100
e 79 101
e 79 102
e 79 103
e 79 104
e 79 105
e 79 106
e 79 127
e 79 134
e 79 141
e 79 157
e 79 161
e 79 164
e 79 167
e 80 81
e 80 82
e 80 83
e 80 84
e 80 85
e 80 86
e 80 87
e 80 88
e 80 89
e 80 90
e 80 93
e 80 100
e 80 101
e 80 102
e 80 103
e 80 104
e 80 105
e 80 106
e 80 115
e 80 128
e 80 138
e 80 151
e 80 158
e 80 165
e 80 166
e 81 82
e 81 83
e 81 84
e 81 85
e 81 86
e 81 87
e 81 88
e 81 89
e 81 91
e 81 92
e 81 113
e 81 114
e 81 122
e 81 123
e 81 129
e 81 132
e 81 136
e 81 141
e 81 142
e 81 147
e 81 155
e 81 159
e 81 163
e 81 167
e 82 83
e 82 84
e 82 85
e 82 86
e 82 87
e 82 88
e 82 89
e 82 91
e 82 92
e 82 94
e 82 106
e 82 107
e 82 119
e 82 121
e 82 124
e 82 130
e 82 133
e 82 137
e 82 138
e 82 143
e 82 154
e 82 160
e 82 164
e 82 166
e 83 84
e 83 85
e 83 86
e 83 87
e 83 88
e 83 89
e 83 92
e 83 94
e 83 95
e 83 105
e 83 112
e 83 118
e 83 122
e 83 123
e 83 125
e 83 131
e 83 134
e 83 135
e 83 139
e 83 156
e 83 161
e 83 165
e 83 168
e 84 85
e 84 86
e 84 87
e 84 88
e 84 89
e 84 94
e 84 95
e 84 96
e 84 104
e 84 111
e 84 117
e 84 121
e 84 124
e 84 126
e 84 128
e 84 129
e 84 132
e 84 140
e 84 157
e 84 158
e 84 162
e 84 169
e 85 86
e 85 87
e 85 88
e 85 89
e 85 95
e 85 96
e 85 97
e 85 103
e 85 110
e 85 116
e 85 123
e 85 125
e 85 127
e 85 130
e 85 133
e 85 136
e 85 141
e 85 150
e 85 151
e 85 152
e 85 153
e 86 87
e 86 88
e 86 89
e 86 96
e 86 97
e 86 98
e 86 102
e 86 109
e 86 115
e 86 124
e 86 126
e 86 131
e 86 134
e 86 137
e 86 138
e 86 146
e 86 147
e 86 148
e 86 149
e 86 155
e 87 88
e 87 89
e 87 97
e 87 98
e 87 99
e 87 100
e 87 108
e 87 125
e 87 127
e 87 128
e 87 132
e 87 135
e 87 139
e 87 142
e 87 143
e 87 144
e 87 145
e 87 154
e 87 159
e 88 89
e 88 93
e 88 98
e 88 99
e 88 101
e 88 114
e 88 115
e 88 116
e 88 117
e 88 118
e 88 119
e 88 120
e 88 126
e 88 133
e 88 140
e 88 156
e 88 160
e 88 163
e 89 90
e 89 93
e 89 99
e 89 107
e 89 108
e 89 109
e 89 110
e 89 111
e 89 112
e 89 113
e 89 127
e 89 134
e 89 141
e 89 157
e 89 161
e 89 164
e 89 167
e 90 91
e 90 92
e 90 93
e 90 94
e 90 95
e 90 96
e 90 97
e 90 98
e 90 99
e 90 100
e 90 101
e 90 102
e 90 103
e 90 104
e 90 105
e 90 106
e 90 108
e 90 116
e 90 135
e 90 147
e 90 152
e 90 162
e 90 168
e 91 92
e 91 93
e 91 94
e 91 95
e 91 96
e 91 97
e 91 98
e 91 99
e 91 120
e 91 121
e 91 122
e 91 129
e 91 131
e 91 136
e 91 140
e 91 144
e 91 148
e 91 151
e 91 155
e 91 159
e 91 163
e 91 167
e 92 93
e 92 94
e 92 95
e 92 96
e 92 97
e 92 98
e 92 99
e 92 113
e 92 114
e 92 121
e 92 122
e 92 123
e 92 130
e 92 132
e 92 137
e 92 141
e 92 142
e 92 147
e 92 154
e 92 160
e 92 164
e 92 166
e 93 94
e 93 95
e 93 96
e 93 97
e 93 98
e 93 99
e 93 101
e 93 107
e 93 108
e 93 109
e 93 110
e 93 111
e 93 112
e 93 113
e 93 115
e 93 128
e 93 138
e 93 151
e 93 158
e 93 165
e 93 166
e 94 95
e 94 96
e 94 97
e 94 98
e 94 99
e 94 106
e 94 107
e 94 119
e 94 121
e 94 123
e 94 124
e 94 129
e 94 131
e 94 133
e 94 138
e 94 139
e 94 143
e 94 156
e 94 161
e 94 165
e 94 168
e 95 96
e 95 97
e 95 98
e 95 99
e 95 105
e 95 112
e 95 118
e 95 123
e 95 124
e 95 125
e 95 130
e 95 132
e 95 134
e 95 135
e 95 136
e 95 140
e 95 157
e 95 158
e 95 162
e 95 169
e 96 97
e 96 98
e 96 99
e 96 104
e 96 111
e 96 117
e 96 124
e 96 125
e 96 126
e 96 128
e 96 131
e 96 133
e 96 137
e 96 141
e 96 150
e 96 151
e 96 152
e 96 153
e 96 155
e 97 98
e 97 99
e 97 103
e 97 110
e 97 116
e 97 125
e 97 126
e 97 127
e 97 132
e 97 134
e 97 138
e 97 139
e 97 146
e 97 147
e 97 148
e 97 149
e 97 154
e 97 159
e 98 99
e 98 102
e 98 109
e 98 115
e 98 126
e 98 127
e 98 128
e 98 133
e 98 135
e 98 140
e 98 142
e 98 143
e 98 144
e 98 145
e 98 156
e 98 160
e 98 163
e 99 100
e 99 108
e 99 114
e 99 115
e 99 116
e 99 117
e 99 118
e 99 119
e 99 120
e 99 127
e 99 134
e 99 141
e 99 157
e 99 161
e 99 164
e 99 167
e 100 101
e 100 102
e 100 103
e 100 104
e 100 105
e 100 106
e 100 108
e 100 109
e 100 110
e 100 116
e 100 118
e 100 128
e 100 129
e 100 130
e 100 131
e 100 132
e 100 133
e 100 134
e 100 142
e 100 146
e 100 153
e 101 102
e 101 103
e 101 104
e 101 105
e 101 106
e 101 108
e 101 109
e 101 115
e 101 117
e 101 121
e 101 122
e 101 123
e 101 124
e 101 125
e 101 126
e 101 127
e 101 143
e 101 148
e 101 150
e 101 169
e 102 103
e 102 104
e 102 105
e 102 106
e 102 109
e 102 110
e 102 111
e 102 115
e 102 117
e 102 119
e 102 135
e 102 136
e 102 137
e 102 138
e 102 139
e 102 140
e 102 141
e 102 144
e 102 149
e 103 104
e 103 105
e 103 106
e 103 110
e 103 111
e 103 112
e 103 114
e 103 116
e 103 118
e 103 127
e 103 143
e 103 145
e 103 147
e 103 151
e 103 154
e 103 155
e 103 156
e 103 157
e 104 105
e 104 106
e 104 107
e 104 111
e 104 112
e 104 117
e 104 119
e 104 120
e 104 126
e 104 128
e 104 142
e 104 148
e 104 152
e 104 158
e 104 159
e 104 160
e 104 161
e 105 106
e 105 107
e 105 112
e 105 113
e 105 114
e 105 118
e 105 125
e 105 134
e 105 135
e 105 144
e 105 146
e 105 150
e 105 162
e 105 163
e 105 164
e 105 165
e 106 107
e 106 113
e 106 119
e 106 120
e 106 124
e 106 133
e 106 138
e 106 143
e 106 145
e 106 149
e 106 153
e 106 166
e 106 167
e 106 168
e 106 169
e 107 108
e 107 109
e 107 110
e 107 111
e 107 112
e 107 113
e 107 114
e 107 119
e 107 120
e 107 124
e 107 133
e 107 138
e 107 143
e 107 144
e 107 146
e 107 150
e 107 162
e 107 163
e 107 164
e 107 165
e 108 109
e 108 110
e 108 111
e 108 112
e 108 113
e 108 115
e 108 116
e 108 121
e 108 122
e 108 123
e 108 124
e 108 125
e 108 126
e 108 127
e 108 135
e 108 147
e 108 152
e 108 162
e 108 168
e 109 110
e 109 111
e 109 112
e 109 113
e 109 115
e 109 116
e 109 117
e 109 128
e 109 129
e 109 130
e 109 131
e 109 132
e 109 133
e 109 134
e 109 143
e 109 148
e 109 150
e 109 169
e 110 111
e 110 112
e 110 113
e 110 116
e 110 117
e 110 118
e 110 127
e 110 135
e 110 136
e 110 137
e 110 138
e 110 139
e 110 140
e 110 141
e 110 142
e 110 146
e 110 153
e 111 112
e 111 113
e 111 117
e 111 118
e 111 119
e 111 126
e 111 128
e 111 143
e 111 144
e 111 147
e 111 149
e 111 151
e 111 154
e 111 155
e 111 156
e 111 157
e 112 113
e 112 114
e 112 118
e 112 119
e 112 125
e 112 134
e 112 135
e 112 142
e 112 145
e 112 148
e 112 152
e 112 158
e 112 159
e 112 160
e 112 161
e 113 114
e 113 120
e 113 123
e 113 132
e 113 141
e 113 142
e 113 145
e 113 147
e 113 149
e 113 153
e 113 166
e 113 167
e 113 168
e 113 169
e 114 115
e 114 116
e 114 117
e 114 118
e 114 119
e 114 120
e 114 123
e 114 132
e 114 141
e 114 142
e 114 144
e 114 145
e 114 146
e 114 147
e 114 150
e 114 162
e 114 163
e 114 164
e 114 165
e 115 116
e 115 117
e 115 118
e 115 119
e 115 120
e 115 121
e 115 122
e 115 123
e 115 124
e 115 125
e 115 126
e 115 127
e 115 128
e 115 138
e 115 151
e 115 158
e 115 165
e 115 166
e 116 117
e 116 118
e 116 119
e 116 120
e 116 127
e 116 128
e 116 129
e 116 130
e 116 131
e 116 132
e 116 133
e 116 134
e 116 135
e 116 147
e 116 152
e 116 162
e 116 168
e 117 118
e 117 119
e 117 120
e 117 126
e 117 128
e 117 135
e 117 136
e 117 137
e 117 138
e 117 139
e 117 140
e 117 141
e 117 143
e 117 148
e 117 150
e 117 169
e 118 119
e 118 120
e 118 125
e 118 134
e 118 135
e 118 142
e 118 143
e 118 146
e 118 147
e 118 151
e 118 153
e 118 154
e 118 155
e 118 156
e 118 157
e 119 120
e 119 124
e 119 133
e 119 138
e 119 142
e 119 143
e 119 144
e 119 148
e 119 149
e 119 152
e 119 158
e 119 159
e 119 160
e 119 161
e 120 121
e 120 131
e 120 140
e 120 144
e 120 145
e 120 148
e 120 149
e 120 151
e 120 153
e 120 166
e 120 167
e 120 168
e 120 169
e 121 122
e 121 123
e 121 124
e 121 125
e 121 126
e 121 127
e 121 129
e 121 130
e 121 131
e 121 137
e 121 140
e 121 144
e 121 148
e 121 151
e 121 154
e 121 160
e 121 164
e 121 166
e 122 123
e 122 124
e 122 125
e 122 126
e 122 127
e 122 129
e 122 130
e 122 136
e 122 139
e 122 145
e 122 146
e 122 152
e 122 155
e 122 157
e 122 159
e 122 163
e 122 167
e 123 124
e 123 125
e 123 126
e 123 127
e 123 130
e 123 131
e 123 132
e 123 136
e 123 139
e 123 141
e 123 142
e 123 147
e 123 156
e 123 161
e 123 165
e 123 168
e 124 125
e 124 126
e 124 127
e 124 131
e 124 132
e 124 133
e 124 137
e 124 138
e 124 140
e 124 143
e 124 155
e 124 157
e 124 158
e 124 162
e 124 169
e 125 126
e 125 127
e 125 132
e 125 133
e 125 134
e 125 135
e 125 139
e 125 141
e 125 150
e 125 151
e 125 152
e 125 153
e 125 154
e 125 159
e 126 127
e 126 128
e 126 133
e 126 134
e 126 138
e 126 140
e 126 146
e 126 147
e 126 148
e 126 149
e 126 156
e 126 160
e 126 163
e 127 128
e 127 134
e 127 135
e 127 141
e 127 142
e 127 143
e 127 144
e 127 145
e 127 157
e 127 161
e 127 164
e 127 167
e 128 129
e 128 130
e 128 131
e 128 132
e 128 133
e 128 134
e 128 135
e 128 138
e 128 142
e 128 143
e 128 144
e 128 145
e 128 151
e 128 158
e 128 165
e 128 166
e 129 130
e 129 131
e 129 132
e 129 133
e 129 134
e 129 136
e 129 137
e 129 149
e 129 150
e 129 155
e 129 156
e 129 158
e 129 159
e 129 163
e 129 167
e 130 131
e 130 132
e 130 133
e 130 134
e 130 136
e 130 137
e 130 139
e 130 145
e 130 146
e 130 152
e 130 154
e 130 157
e 130 160
e 130 164
e 130 166
e 131 132
e 131 133
e 131 134
e 131 137
e 131 139
e 131 140
e 131 144
e 131 148
e 131 151
e 131 155
e 131 156
e 131 161
e 131 165
e 131 168
e 132 133
e 132 134
e 132 139
e 132 140
e 132 141
e 132 142
e 132 147
e 132 154
e 132 157
e 132 158
e 132 159
e 132 162
e 132 169
e 133 134
e 133 138
e 133 140
e 133 141
e 133 143
e 133 150
e 133 151
e 133 152
e 133 153
e 133 156
e 133 160
e 133 163
e 134 135
e 134 138
e 134 141
e 134 146
e 134 147
e 134 148
e 134 149
e 134 157
e 134 161
e 134 164
e 134 167
e 135 136
e 135 137
e 135 138
e 135 139
e 135 140
e 135 141
e 135 142
e 135 143
e 135 144
e 135 145
e 135 147
e 135 152
e 135 162
e 135 168
e 136 137
e 136 138
e 136 139
e 136 140
e 136 141
e 136 153
e 136 154
e 136 155
e 136 159
e 136 161
e 136 162
e 136 163
e 136 167
e 137 138
e 137 139
e 137 140
e 137 141
e 137 149
e 137 150
e 137 154
e 137 155
e 137 156
e 137 158
e 137 160
e 137 164
e 137 166
e 138 139
e 138 140
e 138 141
e 138 143
e 138 146
e 138 147
e 138 148
e 138 149
e 138 151
e 138 158
e 138 165
e 138 166
e 139 140
e 139 141
e 139 145
e 139 146
e 139 152
e 139 154
e 139 156
e 139 157
e 139 159
e 139 161
e 139 165
e 139 168
e 140 141
e 140 144
e 140 148
e 140 151
e 140 156
e 140 157
e 140 158
e 140 160
e 140 162
e 140 163
e 140 169
e 141 142
e 141 147
e 141 150
e 141 151
e 141 152
e 141 153
e 141 157
e 141 161
e 141 164
e 141 167
e 142 143
e 142 144
e 142 145
e 142 146
e 142 147
e 142 148
e 142 152
e 142 153
e 142 158
e 142 159
e 142 160
e 142 161
e 143 144
e 143 145
e 143 147
e 143 148
e 143 150
e 143 151
e 143 154
e 143 155
e 143 156
e 143 157
e 143 169
e 144 145
e 144 146
e 144 148
e 144 149
e 144 150
e 144 151
e 144 162
e 144 163
e 144 164
e 144 165
e 145 146
e 145 149
e 145 152
e 145 153
e 145 157
e 145 166
e 145 167
e 145 168
e 145 169
e 146 147
e 146 148
e 146 149
e 146 150
e 146 152
e 146 153
e 146 157
e 146 162
e 146 163
e 146 164
e 146 165
e 147 148
e 147 149
e 147 151
e 147 152
e 147 154
e 147 155
e 147 156
e 147 157
e 147 162
e 147 168
e 148 149
e 148 150
e 148 151
e 148 152
e 148 158
e 148 159
e 148 160
e 148 161
e 148 169
e 149 150
e 149 153
e 149 156
e 149 158
e 149 166
e 149 167
e 149 168
e 149 169
e 150 151
e 150 152
e 150 153
e 150 156
e 150 158
e 150 162
e 150 163
e 150 164
e 150 165
e 150 169
e 151 152
e 151 153
e 151 154
e 151 155
e 151 156
e 151 157
e 151 158
e 151 165
e 151 166
e 152 153
e 152 157
e 152 158
e 152 159
e 152 160
e 152 161
e 152 162
e 152 168
e 153 154
e 153 161
e 153 162
e 153 166
e 153 167
e 153 168
e 153 169
e 154 155
e 154 156
e 154 157
e 154 159
e 154 160
e 154 161
e 154 162
e 154 164
e 154 166
e 155 156
e 155 157
e 155 159
e 155 160
e 155 163
e 155 165
e 155 167
e 155 169
e 156 157
e 156 158
e 156 160
e 156 161
e 156 163
e 156 165
e 156 168
e 157 158
e 157 161
e 157 162
e 157 164
e 157 167
e 157 169
e 158 159
e 158 160
e 158 161
e 158 162
e 158 165
e 158 166
e 158 169
e 159 160
e 159 161
e 159 163
e 159 164
e 159 167
e 159 168
e 160 161
e 160 163
e 160 164
e 160 165
e 160 166
e 160 169
e 161 162
e 161 164
e 161 165
e 161 167
e 161 168
e 162 163
e 162 164
e 162 165
e 162 168
e 162 169
e 163 164
e 163 165
e 163 166
e 163 167
e 164 165
e 164 166
e 164 167
e 164 168
e 165 166
e 165 168
e 165 169
e 166 167
e 166 168
e 166 169
e 167 168
e 167 169
e 168 169
